; benchmark generated from python API
(set-info :status unknown)
(declare-fun cell_1_7 () Int)
(declare-fun cell_1_8 () Int)
(declare-fun cell_2_1 () Int)
(declare-fun cell_2_4 () Int)
(declare-fun cell_3_2 () Int)
(declare-fun cell_3_4 () Int)
(declare-fun cell_4_6 () Int)
(declare-fun cell_4_8 () Int)
(declare-fun cell_5_2 () Int)
(declare-fun cell_5_3 () Int)
(declare-fun cell_6_6 () Int)
(declare-fun cell_6_9 () Int)
(declare-fun cell_7_5 () Int)
(declare-fun cell_8_9 () Int)
(declare-fun cell_9_1 () Int)
(declare-fun cell_1_1 () Int)
(declare-fun cell_3_1 () Int)
(declare-fun cell_4_1 () Int)
(declare-fun cell_5_1 () Int)
(declare-fun cell_6_1 () Int)
(declare-fun cell_7_1 () Int)
(declare-fun cell_8_1 () Int)
(declare-fun cell_1_2 () Int)
(declare-fun cell_2_2 () Int)
(declare-fun cell_4_2 () Int)
(declare-fun cell_6_2 () Int)
(declare-fun cell_7_2 () Int)
(declare-fun cell_8_2 () Int)
(declare-fun cell_9_2 () Int)
(declare-fun cell_1_3 () Int)
(declare-fun cell_2_3 () Int)
(declare-fun cell_3_3 () Int)
(declare-fun cell_4_3 () Int)
(declare-fun cell_6_3 () Int)
(declare-fun cell_7_3 () Int)
(declare-fun cell_8_3 () Int)
(declare-fun cell_9_3 () Int)
(declare-fun cell_1_4 () Int)
(declare-fun cell_4_4 () Int)
(declare-fun cell_5_4 () Int)
(declare-fun cell_6_4 () Int)
(declare-fun cell_7_4 () Int)
(declare-fun cell_8_4 () Int)
(declare-fun cell_9_4 () Int)
(declare-fun cell_1_5 () Int)
(declare-fun cell_2_5 () Int)
(declare-fun cell_3_5 () Int)
(declare-fun cell_4_5 () Int)
(declare-fun cell_5_5 () Int)
(declare-fun cell_6_5 () Int)
(declare-fun cell_8_5 () Int)
(declare-fun cell_9_5 () Int)
(declare-fun cell_1_6 () Int)
(declare-fun cell_2_6 () Int)
(declare-fun cell_3_6 () Int)
(declare-fun cell_5_6 () Int)
(declare-fun cell_7_6 () Int)
(declare-fun cell_8_6 () Int)
(declare-fun cell_9_6 () Int)
(declare-fun cell_2_7 () Int)
(declare-fun cell_3_7 () Int)
(declare-fun cell_4_7 () Int)
(declare-fun cell_5_7 () Int)
(declare-fun cell_6_7 () Int)
(declare-fun cell_7_7 () Int)
(declare-fun cell_8_7 () Int)
(declare-fun cell_9_7 () Int)
(declare-fun cell_2_8 () Int)
(declare-fun cell_3_8 () Int)
(declare-fun cell_5_8 () Int)
(declare-fun cell_6_8 () Int)
(declare-fun cell_7_8 () Int)
(declare-fun cell_8_8 () Int)
(declare-fun cell_9_8 () Int)
(declare-fun cell_1_9 () Int)
(declare-fun cell_2_9 () Int)
(declare-fun cell_3_9 () Int)
(declare-fun cell_4_9 () Int)
(declare-fun cell_5_9 () Int)
(declare-fun cell_7_9 () Int)
(declare-fun cell_9_9 () Int)
(assert
 (= cell_1_7 1))
(assert
 (= cell_1_8 2))
(assert
 (= cell_2_1 2))
(assert
 (= cell_2_4 1))
(assert
 (= cell_3_2 1))
(assert
 (= cell_3_4 2))
(assert
 (= cell_4_6 2))
(assert
 (= cell_4_8 1))
(assert
 (= cell_5_2 2))
(assert
 (= cell_5_3 1))
(assert
 (= cell_6_6 1))
(assert
 (= cell_6_9 2))
(assert
 (= cell_7_5 1))
(assert
 (= cell_8_9 1))
(assert
 (= cell_9_1 1))
(assert
 (let (($x8367 (= cell_1_1 9)))
 (let (($x2205 (= cell_1_1 8)))
 (let (($x2528 (= cell_1_1 7)))
 (let (($x6609 (= cell_1_1 6)))
 (let (($x3549 (= cell_1_1 5)))
 (let (($x4118 (= cell_1_1 4)))
 (let (($x3194 (= cell_1_1 3)))
 (let (($x5098 (= cell_1_1 2)))
 (let (($x4828 (= cell_1_1 1)))
 (or $x4828 $x5098 $x3194 $x4118 $x3549 $x6609 $x2528 $x2205 $x8367)))))))))))
(assert
 (let (($x4220 (= cell_2_1 2)))
 (or (= cell_2_1 1) $x4220 (= cell_2_1 3) (= cell_2_1 4) (= cell_2_1 5) (= cell_2_1 6) (= cell_2_1 7) (= cell_2_1 8) (= cell_2_1 9))))
(assert
 (let (($x5460 (= cell_3_1 9)))
 (let (($x9631 (= cell_3_1 8)))
 (let (($x511 (= cell_3_1 7)))
 (let (($x7858 (= cell_3_1 6)))
 (let (($x5308 (= cell_3_1 5)))
 (let (($x8461 (= cell_3_1 4)))
 (let (($x2985 (= cell_3_1 3)))
 (let (($x9940 (= cell_3_1 2)))
 (let (($x1122 (= cell_3_1 1)))
 (or $x1122 $x9940 $x2985 $x8461 $x5308 $x7858 $x511 $x9631 $x5460)))))))))))
(assert
 (let (($x5658 (= cell_4_1 9)))
 (let (($x6903 (= cell_4_1 8)))
 (let (($x4895 (= cell_4_1 7)))
 (let (($x4332 (= cell_4_1 6)))
 (let (($x5296 (= cell_4_1 5)))
 (let (($x8763 (= cell_4_1 4)))
 (let (($x10031 (= cell_4_1 3)))
 (let (($x8850 (= cell_4_1 2)))
 (let (($x358 (= cell_4_1 1)))
 (or $x358 $x8850 $x10031 $x8763 $x5296 $x4332 $x4895 $x6903 $x5658)))))))))))
(assert
 (let (($x9585 (= cell_5_1 9)))
 (let (($x9156 (= cell_5_1 8)))
 (let (($x4809 (= cell_5_1 7)))
 (let (($x3757 (= cell_5_1 6)))
 (let (($x4101 (= cell_5_1 5)))
 (let (($x4123 (= cell_5_1 4)))
 (let (($x9296 (= cell_5_1 3)))
 (let (($x8410 (= cell_5_1 2)))
 (let (($x2516 (= cell_5_1 1)))
 (or $x2516 $x8410 $x9296 $x4123 $x4101 $x3757 $x4809 $x9156 $x9585)))))))))))
(assert
 (let (($x9612 (= cell_6_1 9)))
 (let (($x8159 (= cell_6_1 8)))
 (let (($x6645 (= cell_6_1 7)))
 (let (($x1593 (= cell_6_1 6)))
 (let (($x6007 (= cell_6_1 5)))
 (let (($x3993 (= cell_6_1 4)))
 (let (($x3426 (= cell_6_1 3)))
 (let (($x4594 (= cell_6_1 2)))
 (let (($x960 (= cell_6_1 1)))
 (or $x960 $x4594 $x3426 $x3993 $x6007 $x1593 $x6645 $x8159 $x9612)))))))))))
(assert
 (let (($x44 (= cell_7_1 9)))
 (let (($x1910 (= cell_7_1 8)))
 (let (($x4654 (= cell_7_1 7)))
 (let (($x2336 (= cell_7_1 6)))
 (let (($x672 (= cell_7_1 5)))
 (let (($x5189 (= cell_7_1 4)))
 (let (($x1586 (= cell_7_1 3)))
 (let (($x5665 (= cell_7_1 2)))
 (let (($x3394 (= cell_7_1 1)))
 (or $x3394 $x5665 $x1586 $x5189 $x672 $x2336 $x4654 $x1910 $x44)))))))))))
(assert
 (let (($x9664 (= cell_8_1 9)))
 (let (($x5351 (= cell_8_1 8)))
 (let (($x7992 (= cell_8_1 7)))
 (let (($x7129 (= cell_8_1 6)))
 (let (($x3510 (= cell_8_1 5)))
 (let (($x6498 (= cell_8_1 4)))
 (let (($x3953 (= cell_8_1 3)))
 (let (($x5678 (= cell_8_1 2)))
 (let (($x6924 (= cell_8_1 1)))
 (or $x6924 $x5678 $x3953 $x6498 $x3510 $x7129 $x7992 $x5351 $x9664)))))))))))
(assert
 (let (($x9334 (= cell_9_1 1)))
 (or $x9334 (= cell_9_1 2) (= cell_9_1 3) (= cell_9_1 4) (= cell_9_1 5) (= cell_9_1 6) (= cell_9_1 7) (= cell_9_1 8) (= cell_9_1 9))))
(assert
 (let (($x9194 (= cell_1_2 9)))
 (let (($x6616 (= cell_1_2 8)))
 (let (($x2398 (= cell_1_2 7)))
 (let (($x3428 (= cell_1_2 6)))
 (let (($x3579 (= cell_1_2 5)))
 (let (($x7570 (= cell_1_2 4)))
 (let (($x6155 (= cell_1_2 3)))
 (let (($x7668 (= cell_1_2 2)))
 (let (($x3810 (= cell_1_2 1)))
 (or $x3810 $x7668 $x6155 $x7570 $x3579 $x3428 $x2398 $x6616 $x9194)))))))))))
(assert
 (let (($x957 (= cell_2_2 9)))
 (let (($x6183 (= cell_2_2 8)))
 (let (($x4472 (= cell_2_2 7)))
 (let (($x5629 (= cell_2_2 6)))
 (let (($x4497 (= cell_2_2 5)))
 (let (($x7845 (= cell_2_2 4)))
 (let (($x9029 (= cell_2_2 3)))
 (let (($x4595 (= cell_2_2 2)))
 (let (($x2080 (= cell_2_2 1)))
 (or $x2080 $x4595 $x9029 $x7845 $x4497 $x5629 $x4472 $x6183 $x957)))))))))))
(assert
 (let (($x8206 (= cell_3_2 1)))
 (or $x8206 (= cell_3_2 2) (= cell_3_2 3) (= cell_3_2 4) (= cell_3_2 5) (= cell_3_2 6) (= cell_3_2 7) (= cell_3_2 8) (= cell_3_2 9))))
(assert
 (let (($x7870 (= cell_4_2 9)))
 (let (($x2036 (= cell_4_2 8)))
 (let (($x7412 (= cell_4_2 7)))
 (let (($x4124 (= cell_4_2 6)))
 (let (($x7476 (= cell_4_2 5)))
 (let (($x3767 (= cell_4_2 4)))
 (let (($x7419 (= cell_4_2 3)))
 (let (($x7439 (= cell_4_2 2)))
 (let (($x8832 (= cell_4_2 1)))
 (or $x8832 $x7439 $x7419 $x3767 $x7476 $x4124 $x7412 $x2036 $x7870)))))))))))
(assert
 (let (($x2786 (= cell_5_2 2)))
 (or (= cell_5_2 1) $x2786 (= cell_5_2 3) (= cell_5_2 4) (= cell_5_2 5) (= cell_5_2 6) (= cell_5_2 7) (= cell_5_2 8) (= cell_5_2 9))))
(assert
 (let (($x8054 (= cell_6_2 9)))
 (let (($x5906 (= cell_6_2 8)))
 (let (($x3967 (= cell_6_2 7)))
 (let (($x9725 (= cell_6_2 6)))
 (let (($x8643 (= cell_6_2 5)))
 (let (($x7514 (= cell_6_2 4)))
 (let (($x5325 (= cell_6_2 3)))
 (let (($x7827 (= cell_6_2 2)))
 (let (($x2774 (= cell_6_2 1)))
 (or $x2774 $x7827 $x5325 $x7514 $x8643 $x9725 $x3967 $x5906 $x8054)))))))))))
(assert
 (let (($x1455 (= cell_7_2 9)))
 (let (($x4163 (= cell_7_2 8)))
 (let (($x5514 (= cell_7_2 7)))
 (let (($x3267 (= cell_7_2 6)))
 (let (($x9779 (= cell_7_2 5)))
 (let (($x1174 (= cell_7_2 4)))
 (let (($x4313 (= cell_7_2 3)))
 (let (($x1698 (= cell_7_2 2)))
 (let (($x2420 (= cell_7_2 1)))
 (or $x2420 $x1698 $x4313 $x1174 $x9779 $x3267 $x5514 $x4163 $x1455)))))))))))
(assert
 (let (($x8766 (= cell_8_2 9)))
 (let (($x6282 (= cell_8_2 8)))
 (let (($x9951 (= cell_8_2 7)))
 (let (($x1046 (= cell_8_2 6)))
 (let (($x2132 (= cell_8_2 5)))
 (let (($x9920 (= cell_8_2 4)))
 (let (($x9556 (= cell_8_2 3)))
 (let (($x6514 (= cell_8_2 2)))
 (let (($x2044 (= cell_8_2 1)))
 (or $x2044 $x6514 $x9556 $x9920 $x2132 $x1046 $x9951 $x6282 $x8766)))))))))))
(assert
 (let (($x7915 (= cell_9_2 2)))
 (let (($x959 (= cell_9_2 1)))
 (or $x959 $x7915 (= cell_9_2 3) (= cell_9_2 4) (= cell_9_2 5) (= cell_9_2 6) (= cell_9_2 7) (= cell_9_2 8) (= cell_9_2 9)))))
(assert
 (let (($x8045 (= cell_1_3 9)))
 (let (($x5459 (= cell_1_3 8)))
 (let (($x5378 (= cell_1_3 7)))
 (let (($x7445 (= cell_1_3 6)))
 (let (($x4182 (= cell_1_3 5)))
 (let (($x8703 (= cell_1_3 4)))
 (let (($x8914 (= cell_1_3 3)))
 (let (($x2337 (= cell_1_3 2)))
 (let (($x9672 (= cell_1_3 1)))
 (or $x9672 $x2337 $x8914 $x8703 $x4182 $x7445 $x5378 $x5459 $x8045)))))))))))
(assert
 (let (($x5575 (= cell_2_3 9)))
 (let (($x4754 (= cell_2_3 8)))
 (let (($x8405 (= cell_2_3 7)))
 (let (($x5594 (= cell_2_3 6)))
 (let (($x10203 (= cell_2_3 5)))
 (let (($x4812 (= cell_2_3 4)))
 (let (($x3848 (= cell_2_3 3)))
 (let (($x4149 (= cell_2_3 2)))
 (let (($x1876 (= cell_2_3 1)))
 (or $x1876 $x4149 $x3848 $x4812 $x10203 $x5594 $x8405 $x4754 $x5575)))))))))))
(assert
 (let (($x7157 (= cell_3_3 9)))
 (let (($x4116 (= cell_3_3 8)))
 (let (($x9262 (= cell_3_3 7)))
 (let (($x6222 (= cell_3_3 6)))
 (let (($x8147 (= cell_3_3 5)))
 (let (($x3784 (= cell_3_3 4)))
 (let (($x1043 (= cell_3_3 3)))
 (let (($x5263 (= cell_3_3 2)))
 (let (($x8106 (= cell_3_3 1)))
 (or $x8106 $x5263 $x1043 $x3784 $x8147 $x6222 $x9262 $x4116 $x7157)))))))))))
(assert
 (let (($x6177 (= cell_4_3 9)))
 (let (($x26 (= cell_4_3 8)))
 (let (($x1018 (= cell_4_3 7)))
 (let (($x7407 (= cell_4_3 6)))
 (let (($x7202 (= cell_4_3 5)))
 (let (($x4876 (= cell_4_3 4)))
 (let (($x2818 (= cell_4_3 3)))
 (let (($x6332 (= cell_4_3 2)))
 (let (($x441 (= cell_4_3 1)))
 (or $x441 $x6332 $x2818 $x4876 $x7202 $x7407 $x1018 $x26 $x6177)))))))))))
(assert
 (let (($x8749 (= cell_5_3 1)))
 (or $x8749 (= cell_5_3 2) (= cell_5_3 3) (= cell_5_3 4) (= cell_5_3 5) (= cell_5_3 6) (= cell_5_3 7) (= cell_5_3 8) (= cell_5_3 9))))
(assert
 (let (($x4459 (= cell_6_3 9)))
 (let (($x366 (= cell_6_3 8)))
 (let (($x5765 (= cell_6_3 7)))
 (let (($x1611 (= cell_6_3 6)))
 (let (($x1890 (= cell_6_3 5)))
 (let (($x7305 (= cell_6_3 4)))
 (let (($x2011 (= cell_6_3 3)))
 (let (($x5199 (= cell_6_3 2)))
 (let (($x4982 (= cell_6_3 1)))
 (or $x4982 $x5199 $x2011 $x7305 $x1890 $x1611 $x5765 $x366 $x4459)))))))))))
(assert
 (let (($x2303 (= cell_7_3 9)))
 (let (($x5088 (= cell_7_3 8)))
 (let (($x3355 (= cell_7_3 7)))
 (let (($x7967 (= cell_7_3 6)))
 (let (($x3790 (= cell_7_3 5)))
 (let (($x6440 (= cell_7_3 4)))
 (let (($x5966 (= cell_7_3 3)))
 (let (($x9812 (= cell_7_3 2)))
 (let (($x8820 (= cell_7_3 1)))
 (or $x8820 $x9812 $x5966 $x6440 $x3790 $x7967 $x3355 $x5088 $x2303)))))))))))
(assert
 (let (($x6581 (= cell_8_3 9)))
 (let (($x5780 (= cell_8_3 8)))
 (let (($x2222 (= cell_8_3 7)))
 (let (($x4951 (= cell_8_3 6)))
 (let (($x1697 (= cell_8_3 5)))
 (let (($x6594 (= cell_8_3 4)))
 (let (($x2324 (= cell_8_3 3)))
 (let (($x7771 (= cell_8_3 2)))
 (let (($x9976 (= cell_8_3 1)))
 (or $x9976 $x7771 $x2324 $x6594 $x1697 $x4951 $x2222 $x5780 $x6581)))))))))))
(assert
 (let (($x1827 (= cell_9_3 1)))
 (or $x1827 (= cell_9_3 2) (= cell_9_3 3) (= cell_9_3 4) (= cell_9_3 5) (= cell_9_3 6) (= cell_9_3 7) (= cell_9_3 8) (= cell_9_3 9))))
(assert
 (let (($x3966 (= cell_1_4 9)))
 (let (($x5478 (= cell_1_4 8)))
 (let (($x3440 (= cell_1_4 7)))
 (let (($x9743 (= cell_1_4 6)))
 (let (($x10021 (= cell_1_4 5)))
 (let (($x8421 (= cell_1_4 4)))
 (let (($x8449 (= cell_1_4 3)))
 (let (($x4067 (= cell_1_4 2)))
 (let (($x9787 (= cell_1_4 1)))
 (or $x9787 $x4067 $x8449 $x8421 $x10021 $x9743 $x3440 $x5478 $x3966)))))))))))
(assert
 (let (($x4699 (= cell_2_4 1)))
 (or $x4699 (= cell_2_4 2) (= cell_2_4 3) (= cell_2_4 4) (= cell_2_4 5) (= cell_2_4 6) (= cell_2_4 7) (= cell_2_4 8) (= cell_2_4 9))))
(assert
 (let (($x2816 (= cell_3_4 2)))
 (or (= cell_3_4 1) $x2816 (= cell_3_4 3) (= cell_3_4 4) (= cell_3_4 5) (= cell_3_4 6) (= cell_3_4 7) (= cell_3_4 8) (= cell_3_4 9))))
(assert
 (let (($x415 (= cell_4_4 9)))
 (let (($x8385 (= cell_4_4 8)))
 (let (($x1041 (= cell_4_4 7)))
 (let (($x8886 (= cell_4_4 6)))
 (let (($x3077 (= cell_4_4 5)))
 (let (($x8822 (= cell_4_4 4)))
 (let (($x732 (= cell_4_4 3)))
 (let (($x5118 (= cell_4_4 2)))
 (let (($x4485 (= cell_4_4 1)))
 (or $x4485 $x5118 $x732 $x8822 $x3077 $x8886 $x1041 $x8385 $x415)))))))))))
(assert
 (let (($x2279 (= cell_5_4 9)))
 (let (($x1838 (= cell_5_4 8)))
 (let (($x2149 (= cell_5_4 7)))
 (let (($x1806 (= cell_5_4 6)))
 (let (($x1981 (= cell_5_4 5)))
 (let (($x1348 (= cell_5_4 4)))
 (let (($x4170 (= cell_5_4 3)))
 (let (($x7366 (= cell_5_4 2)))
 (let (($x6842 (= cell_5_4 1)))
 (or $x6842 $x7366 $x4170 $x1348 $x1981 $x1806 $x2149 $x1838 $x2279)))))))))))
(assert
 (let (($x7905 (= cell_6_4 9)))
 (let (($x794 (= cell_6_4 8)))
 (let (($x479 (= cell_6_4 7)))
 (let (($x5377 (= cell_6_4 6)))
 (let (($x55 (= cell_6_4 5)))
 (let (($x6249 (= cell_6_4 4)))
 (let (($x8381 (= cell_6_4 3)))
 (let (($x6683 (= cell_6_4 2)))
 (let (($x7153 (= cell_6_4 1)))
 (or $x7153 $x6683 $x8381 $x6249 $x55 $x5377 $x479 $x794 $x7905)))))))))))
(assert
 (let (($x5301 (= cell_7_4 9)))
 (let (($x8102 (= cell_7_4 8)))
 (let (($x5936 (= cell_7_4 7)))
 (let (($x7736 (= cell_7_4 6)))
 (let (($x8048 (= cell_7_4 5)))
 (let (($x8834 (= cell_7_4 4)))
 (let (($x4996 (= cell_7_4 3)))
 (let (($x4069 (= cell_7_4 2)))
 (let (($x8652 (= cell_7_4 1)))
 (or $x8652 $x4069 $x4996 $x8834 $x8048 $x7736 $x5936 $x8102 $x5301)))))))))))
(assert
 (let (($x6038 (= cell_8_4 9)))
 (let (($x8873 (= cell_8_4 8)))
 (let (($x269 (= cell_8_4 7)))
 (let (($x3738 (= cell_8_4 6)))
 (let (($x9077 (= cell_8_4 5)))
 (let (($x3159 (= cell_8_4 4)))
 (let (($x3619 (= cell_8_4 3)))
 (let (($x6554 (= cell_8_4 2)))
 (let (($x8989 (= cell_8_4 1)))
 (or $x8989 $x6554 $x3619 $x3159 $x9077 $x3738 $x269 $x8873 $x6038)))))))))))
(assert
 (let (($x3190 (= cell_9_4 2)))
 (let (($x9793 (= cell_9_4 1)))
 (or $x9793 $x3190 (= cell_9_4 3) (= cell_9_4 4) (= cell_9_4 5) (= cell_9_4 6) (= cell_9_4 7) (= cell_9_4 8) (= cell_9_4 9)))))
(assert
 (let (($x3448 (= cell_1_5 9)))
 (let (($x7610 (= cell_1_5 8)))
 (let (($x4285 (= cell_1_5 7)))
 (let (($x3820 (= cell_1_5 6)))
 (let (($x4319 (= cell_1_5 5)))
 (let (($x3559 (= cell_1_5 4)))
 (let (($x5093 (= cell_1_5 3)))
 (let (($x2119 (= cell_1_5 2)))
 (let (($x10200 (= cell_1_5 1)))
 (or $x10200 $x2119 $x5093 $x3559 $x4319 $x3820 $x4285 $x7610 $x3448)))))))))))
(assert
 (let (($x3086 (= cell_2_5 9)))
 (let (($x1760 (= cell_2_5 8)))
 (let (($x3469 (= cell_2_5 7)))
 (let (($x6395 (= cell_2_5 6)))
 (let (($x8175 (= cell_2_5 5)))
 (let (($x7494 (= cell_2_5 4)))
 (let (($x8792 (= cell_2_5 3)))
 (let (($x9706 (= cell_2_5 2)))
 (let (($x712 (= cell_2_5 1)))
 (or $x712 $x9706 $x8792 $x7494 $x8175 $x6395 $x3469 $x1760 $x3086)))))))))))
(assert
 (let (($x255 (= cell_3_5 9)))
 (let (($x5212 (= cell_3_5 8)))
 (let (($x1745 (= cell_3_5 7)))
 (let (($x2446 (= cell_3_5 6)))
 (let (($x5328 (= cell_3_5 5)))
 (let (($x5863 (= cell_3_5 4)))
 (let (($x9481 (= cell_3_5 3)))
 (let (($x3369 (= cell_3_5 2)))
 (let (($x847 (= cell_3_5 1)))
 (or $x847 $x3369 $x9481 $x5863 $x5328 $x2446 $x1745 $x5212 $x255)))))))))))
(assert
 (let (($x1323 (= cell_4_5 9)))
 (let (($x1604 (= cell_4_5 8)))
 (let (($x2063 (= cell_4_5 7)))
 (let (($x9761 (= cell_4_5 6)))
 (let (($x5130 (= cell_4_5 5)))
 (let (($x2932 (= cell_4_5 4)))
 (let (($x9250 (= cell_4_5 3)))
 (let (($x2654 (= cell_4_5 2)))
 (let (($x1260 (= cell_4_5 1)))
 (or $x1260 $x2654 $x9250 $x2932 $x5130 $x9761 $x2063 $x1604 $x1323)))))))))))
(assert
 (let (($x6892 (= cell_5_5 9)))
 (let (($x1112 (= cell_5_5 8)))
 (let (($x10099 (= cell_5_5 7)))
 (let (($x1346 (= cell_5_5 6)))
 (let (($x7259 (= cell_5_5 5)))
 (let (($x3328 (= cell_5_5 4)))
 (let (($x4058 (= cell_5_5 3)))
 (let (($x8019 (= cell_5_5 2)))
 (let (($x6930 (= cell_5_5 1)))
 (or $x6930 $x8019 $x4058 $x3328 $x7259 $x1346 $x10099 $x1112 $x6892)))))))))))
(assert
 (let (($x7405 (= cell_6_5 9)))
 (let (($x3202 (= cell_6_5 8)))
 (let (($x1375 (= cell_6_5 7)))
 (let (($x5803 (= cell_6_5 6)))
 (let (($x6603 (= cell_6_5 5)))
 (let (($x4720 (= cell_6_5 4)))
 (let (($x2698 (= cell_6_5 3)))
 (let (($x9309 (= cell_6_5 2)))
 (let (($x2980 (= cell_6_5 1)))
 (or $x2980 $x9309 $x2698 $x4720 $x6603 $x5803 $x1375 $x3202 $x7405)))))))))))
(assert
 (let (($x278 (= cell_7_5 1)))
 (or $x278 (= cell_7_5 2) (= cell_7_5 3) (= cell_7_5 4) (= cell_7_5 5) (= cell_7_5 6) (= cell_7_5 7) (= cell_7_5 8) (= cell_7_5 9))))
(assert
 (let (($x2967 (= cell_8_5 9)))
 (let (($x4675 (= cell_8_5 8)))
 (let (($x1390 (= cell_8_5 7)))
 (let (($x187 (= cell_8_5 6)))
 (let (($x6863 (= cell_8_5 5)))
 (let (($x9187 (= cell_8_5 4)))
 (let (($x8529 (= cell_8_5 3)))
 (let (($x4544 (= cell_8_5 2)))
 (let (($x1675 (= cell_8_5 1)))
 (or $x1675 $x4544 $x8529 $x9187 $x6863 $x187 $x1390 $x4675 $x2967)))))))))))
(assert
 (let (($x5424 (= cell_9_5 1)))
 (or $x5424 (= cell_9_5 2) (= cell_9_5 3) (= cell_9_5 4) (= cell_9_5 5) (= cell_9_5 6) (= cell_9_5 7) (= cell_9_5 8) (= cell_9_5 9))))
(assert
 (let (($x9399 (= cell_1_6 9)))
 (let (($x1561 (= cell_1_6 8)))
 (let (($x2191 (= cell_1_6 7)))
 (let (($x7196 (= cell_1_6 6)))
 (let (($x6915 (= cell_1_6 5)))
 (let (($x6947 (= cell_1_6 4)))
 (let (($x1842 (= cell_1_6 3)))
 (let (($x8177 (= cell_1_6 2)))
 (let (($x3068 (= cell_1_6 1)))
 (or $x3068 $x8177 $x1842 $x6947 $x6915 $x7196 $x2191 $x1561 $x9399)))))))))))
(assert
 (let (($x3389 (= cell_2_6 9)))
 (let (($x6459 (= cell_2_6 8)))
 (let (($x1819 (= cell_2_6 7)))
 (let (($x10047 (= cell_2_6 6)))
 (let (($x1305 (= cell_2_6 5)))
 (let (($x5683 (= cell_2_6 4)))
 (let (($x7542 (= cell_2_6 3)))
 (let (($x6430 (= cell_2_6 2)))
 (let (($x3129 (= cell_2_6 1)))
 (or $x3129 $x6430 $x7542 $x5683 $x1305 $x10047 $x1819 $x6459 $x3389)))))))))))
(assert
 (let (($x1608 (= cell_3_6 9)))
 (let (($x1330 (= cell_3_6 8)))
 (let (($x5790 (= cell_3_6 7)))
 (let (($x2013 (= cell_3_6 6)))
 (let (($x2120 (= cell_3_6 5)))
 (let (($x6845 (= cell_3_6 4)))
 (let (($x8374 (= cell_3_6 3)))
 (let (($x4894 (= cell_3_6 2)))
 (let (($x8217 (= cell_3_6 1)))
 (or $x8217 $x4894 $x8374 $x6845 $x2120 $x2013 $x5790 $x1330 $x1608)))))))))))
(assert
 (let (($x5724 (= cell_4_6 2)))
 (or (= cell_4_6 1) $x5724 (= cell_4_6 3) (= cell_4_6 4) (= cell_4_6 5) (= cell_4_6 6) (= cell_4_6 7) (= cell_4_6 8) (= cell_4_6 9))))
(assert
 (let (($x3789 (= cell_5_6 9)))
 (let (($x3205 (= cell_5_6 8)))
 (let (($x1808 (= cell_5_6 7)))
 (let (($x3387 (= cell_5_6 6)))
 (let (($x5145 (= cell_5_6 5)))
 (let (($x8433 (= cell_5_6 4)))
 (let (($x4391 (= cell_5_6 3)))
 (let (($x3299 (= cell_5_6 2)))
 (let (($x7217 (= cell_5_6 1)))
 (or $x7217 $x3299 $x4391 $x8433 $x5145 $x3387 $x1808 $x3205 $x3789)))))))))))
(assert
 (let (($x1396 (= cell_6_6 1)))
 (or $x1396 (= cell_6_6 2) (= cell_6_6 3) (= cell_6_6 4) (= cell_6_6 5) (= cell_6_6 6) (= cell_6_6 7) (= cell_6_6 8) (= cell_6_6 9))))
(assert
 (let (($x8141 (= cell_7_6 2)))
 (let (($x8654 (= cell_7_6 1)))
 (or $x8654 $x8141 (= cell_7_6 3) (= cell_7_6 4) (= cell_7_6 5) (= cell_7_6 6) (= cell_7_6 7) (= cell_7_6 8) (= cell_7_6 9)))))
(assert
 (let (($x7059 (= cell_8_6 9)))
 (let (($x4892 (= cell_8_6 8)))
 (let (($x2871 (= cell_8_6 7)))
 (let (($x1616 (= cell_8_6 6)))
 (let (($x1238 (= cell_8_6 5)))
 (let (($x3638 (= cell_8_6 4)))
 (let (($x8090 (= cell_8_6 3)))
 (let (($x4847 (= cell_8_6 2)))
 (let (($x3032 (= cell_8_6 1)))
 (or $x3032 $x4847 $x8090 $x3638 $x1238 $x1616 $x2871 $x4892 $x7059)))))))))))
(assert
 (let (($x3235 (= cell_9_6 2)))
 (let (($x10258 (= cell_9_6 1)))
 (or $x10258 $x3235 (= cell_9_6 3) (= cell_9_6 4) (= cell_9_6 5) (= cell_9_6 6) (= cell_9_6 7) (= cell_9_6 8) (= cell_9_6 9)))))
(assert
 (let (($x1071 (= cell_1_7 1)))
 (or $x1071 (= cell_1_7 2) (= cell_1_7 3) (= cell_1_7 4) (= cell_1_7 5) (= cell_1_7 6) (= cell_1_7 7) (= cell_1_7 8) (= cell_1_7 9))))
(assert
 (let (($x3418 (= cell_2_7 2)))
 (let (($x5960 (= cell_2_7 1)))
 (or $x5960 $x3418 (= cell_2_7 3) (= cell_2_7 4) (= cell_2_7 5) (= cell_2_7 6) (= cell_2_7 7) (= cell_2_7 8) (= cell_2_7 9)))))
(assert
 (let (($x5392 (= cell_3_7 9)))
 (let (($x9521 (= cell_3_7 8)))
 (let (($x5706 (= cell_3_7 7)))
 (let (($x4724 (= cell_3_7 6)))
 (let (($x4852 (= cell_3_7 5)))
 (let (($x8730 (= cell_3_7 4)))
 (let (($x6708 (= cell_3_7 3)))
 (let (($x3952 (= cell_3_7 2)))
 (let (($x2823 (= cell_3_7 1)))
 (or $x2823 $x3952 $x6708 $x8730 $x4852 $x4724 $x5706 $x9521 $x5392)))))))))))
(assert
 (let (($x5375 (= cell_4_7 9)))
 (let (($x1689 (= cell_4_7 8)))
 (let (($x3725 (= cell_4_7 7)))
 (let (($x10036 (= cell_4_7 6)))
 (let (($x6584 (= cell_4_7 5)))
 (let (($x9287 (= cell_4_7 4)))
 (let (($x7263 (= cell_4_7 3)))
 (let (($x4589 (= cell_4_7 2)))
 (let (($x1176 (= cell_4_7 1)))
 (or $x1176 $x4589 $x7263 $x9287 $x6584 $x10036 $x3725 $x1689 $x5375)))))))))))
(assert
 (let (($x66 (= cell_5_7 9)))
 (let (($x522 (= cell_5_7 8)))
 (let (($x1457 (= cell_5_7 7)))
 (let (($x4454 (= cell_5_7 6)))
 (let (($x906 (= cell_5_7 5)))
 (let (($x2877 (= cell_5_7 4)))
 (let (($x6985 (= cell_5_7 3)))
 (let (($x8335 (= cell_5_7 2)))
 (let (($x7425 (= cell_5_7 1)))
 (or $x7425 $x8335 $x6985 $x2877 $x906 $x4454 $x1457 $x522 $x66)))))))))))
(assert
 (let (($x310 (= cell_6_7 9)))
 (let (($x9836 (= cell_6_7 8)))
 (let (($x3022 (= cell_6_7 7)))
 (let (($x9467 (= cell_6_7 6)))
 (let (($x2209 (= cell_6_7 5)))
 (let (($x9410 (= cell_6_7 4)))
 (let (($x2910 (= cell_6_7 3)))
 (let (($x4939 (= cell_6_7 2)))
 (let (($x3258 (= cell_6_7 1)))
 (or $x3258 $x4939 $x2910 $x9410 $x2209 $x9467 $x3022 $x9836 $x310)))))))))))
(assert
 (let (($x5999 (= cell_7_7 9)))
 (let (($x8880 (= cell_7_7 8)))
 (let (($x9942 (= cell_7_7 7)))
 (let (($x684 (= cell_7_7 6)))
 (let (($x5600 (= cell_7_7 5)))
 (let (($x4276 (= cell_7_7 4)))
 (let (($x9113 (= cell_7_7 3)))
 (let (($x2362 (= cell_7_7 2)))
 (let (($x10161 (= cell_7_7 1)))
 (or $x10161 $x2362 $x9113 $x4276 $x5600 $x684 $x9942 $x8880 $x5999)))))))))))
(assert
 (let (($x7132 (= cell_8_7 9)))
 (let (($x1673 (= cell_8_7 8)))
 (let (($x3723 (= cell_8_7 7)))
 (let (($x8031 (= cell_8_7 6)))
 (let (($x8278 (= cell_8_7 5)))
 (let (($x3720 (= cell_8_7 4)))
 (let (($x5031 (= cell_8_7 3)))
 (let (($x5521 (= cell_8_7 2)))
 (let (($x2537 (= cell_8_7 1)))
 (or $x2537 $x5521 $x5031 $x3720 $x8278 $x8031 $x3723 $x1673 $x7132)))))))))))
(assert
 (let (($x5617 (= cell_9_7 1)))
 (or $x5617 (= cell_9_7 2) (= cell_9_7 3) (= cell_9_7 4) (= cell_9_7 5) (= cell_9_7 6) (= cell_9_7 7) (= cell_9_7 8) (= cell_9_7 9))))
(assert
 (let (($x4610 (= cell_1_8 2)))
 (or (= cell_1_8 1) $x4610 (= cell_1_8 3) (= cell_1_8 4) (= cell_1_8 5) (= cell_1_8 6) (= cell_1_8 7) (= cell_1_8 8) (= cell_1_8 9))))
(assert
 (let (($x10022 (= cell_2_8 9)))
 (let (($x3829 (= cell_2_8 8)))
 (let (($x1479 (= cell_2_8 7)))
 (let (($x9919 (= cell_2_8 6)))
 (let (($x3429 (= cell_2_8 5)))
 (let (($x4588 (= cell_2_8 4)))
 (let (($x6765 (= cell_2_8 3)))
 (let (($x4543 (= cell_2_8 2)))
 (let (($x6051 (= cell_2_8 1)))
 (or $x6051 $x4543 $x6765 $x4588 $x3429 $x9919 $x1479 $x3829 $x10022)))))))))))
(assert
 (let (($x3684 (= cell_3_8 9)))
 (let (($x103 (= cell_3_8 8)))
 (let (($x131 (= cell_3_8 7)))
 (let (($x9563 (= cell_3_8 6)))
 (let (($x825 (= cell_3_8 5)))
 (let (($x876 (= cell_3_8 4)))
 (let (($x5402 (= cell_3_8 3)))
 (let (($x1570 (= cell_3_8 2)))
 (let (($x842 (= cell_3_8 1)))
 (or $x842 $x1570 $x5402 $x876 $x825 $x9563 $x131 $x103 $x3684)))))))))))
(assert
 (let (($x5585 (= cell_4_8 1)))
 (or $x5585 (= cell_4_8 2) (= cell_4_8 3) (= cell_4_8 4) (= cell_4_8 5) (= cell_4_8 6) (= cell_4_8 7) (= cell_4_8 8) (= cell_4_8 9))))
(assert
 (let (($x3541 (= cell_5_8 9)))
 (let (($x804 (= cell_5_8 8)))
 (let (($x4242 (= cell_5_8 7)))
 (let (($x2906 (= cell_5_8 6)))
 (let (($x2694 (= cell_5_8 5)))
 (let (($x2930 (= cell_5_8 4)))
 (let (($x9686 (= cell_5_8 3)))
 (let (($x2581 (= cell_5_8 2)))
 (let (($x5180 (= cell_5_8 1)))
 (or $x5180 $x2581 $x9686 $x2930 $x2694 $x2906 $x4242 $x804 $x3541)))))))))))
(assert
 (let (($x5632 (= cell_6_8 9)))
 (let (($x8515 (= cell_6_8 8)))
 (let (($x1763 (= cell_6_8 7)))
 (let (($x1865 (= cell_6_8 6)))
 (let (($x9656 (= cell_6_8 5)))
 (let (($x8467 (= cell_6_8 4)))
 (let (($x10085 (= cell_6_8 3)))
 (let (($x413 (= cell_6_8 2)))
 (let (($x1647 (= cell_6_8 1)))
 (or $x1647 $x413 $x10085 $x8467 $x9656 $x1865 $x1763 $x8515 $x5632)))))))))))
(assert
 (let (($x4466 (= cell_7_8 9)))
 (let (($x1495 (= cell_7_8 8)))
 (let (($x7895 (= cell_7_8 7)))
 (let (($x9344 (= cell_7_8 6)))
 (let (($x5672 (= cell_7_8 5)))
 (let (($x5108 (= cell_7_8 4)))
 (let (($x6706 (= cell_7_8 3)))
 (let (($x9688 (= cell_7_8 2)))
 (let (($x3162 (= cell_7_8 1)))
 (or $x3162 $x9688 $x6706 $x5108 $x5672 $x9344 $x7895 $x1495 $x4466)))))))))))
(assert
 (let (($x1284 (= cell_8_8 9)))
 (let (($x6876 (= cell_8_8 8)))
 (let (($x5282 (= cell_8_8 7)))
 (let (($x942 (= cell_8_8 6)))
 (let (($x761 (= cell_8_8 5)))
 (let (($x7254 (= cell_8_8 4)))
 (let (($x3408 (= cell_8_8 3)))
 (let (($x1204 (= cell_8_8 2)))
 (let (($x3710 (= cell_8_8 1)))
 (or $x3710 $x1204 $x3408 $x7254 $x761 $x942 $x5282 $x6876 $x1284)))))))))))
(assert
 (let (($x7787 (= cell_9_8 2)))
 (let (($x8052 (= cell_9_8 1)))
 (or $x8052 $x7787 (= cell_9_8 3) (= cell_9_8 4) (= cell_9_8 5) (= cell_9_8 6) (= cell_9_8 7) (= cell_9_8 8) (= cell_9_8 9)))))
(assert
 (let (($x9067 (= cell_1_9 9)))
 (let (($x9019 (= cell_1_9 8)))
 (let (($x5007 (= cell_1_9 7)))
 (let (($x4096 (= cell_1_9 6)))
 (let (($x1427 (= cell_1_9 5)))
 (let (($x2846 (= cell_1_9 4)))
 (let (($x5103 (= cell_1_9 3)))
 (let (($x2263 (= cell_1_9 2)))
 (let (($x2650 (= cell_1_9 1)))
 (or $x2650 $x2263 $x5103 $x2846 $x1427 $x4096 $x5007 $x9019 $x9067)))))))))))
(assert
 (let (($x3891 (= cell_2_9 9)))
 (let (($x6408 (= cell_2_9 8)))
 (let (($x6931 (= cell_2_9 7)))
 (let (($x3571 (= cell_2_9 6)))
 (let (($x3484 (= cell_2_9 5)))
 (let (($x6803 (= cell_2_9 4)))
 (let (($x5648 (= cell_2_9 3)))
 (let (($x9865 (= cell_2_9 2)))
 (let (($x1895 (= cell_2_9 1)))
 (or $x1895 $x9865 $x5648 $x6803 $x3484 $x3571 $x6931 $x6408 $x3891)))))))))))
(assert
 (let (($x7680 (= cell_3_9 9)))
 (let (($x5620 (= cell_3_9 8)))
 (let (($x5363 (= cell_3_9 7)))
 (let (($x3203 (= cell_3_9 6)))
 (let (($x659 (= cell_3_9 5)))
 (let (($x6004 (= cell_3_9 4)))
 (let (($x7853 (= cell_3_9 3)))
 (let (($x940 (= cell_3_9 2)))
 (let (($x2890 (= cell_3_9 1)))
 (or $x2890 $x940 $x7853 $x6004 $x659 $x3203 $x5363 $x5620 $x7680)))))))))))
(assert
 (let (($x2052 (= cell_4_9 9)))
 (let (($x9335 (= cell_4_9 8)))
 (let (($x1782 (= cell_4_9 7)))
 (let (($x7068 (= cell_4_9 6)))
 (let (($x1512 (= cell_4_9 5)))
 (let (($x1424 (= cell_4_9 4)))
 (let (($x8800 (= cell_4_9 3)))
 (let (($x9641 (= cell_4_9 2)))
 (let (($x1916 (= cell_4_9 1)))
 (or $x1916 $x9641 $x8800 $x1424 $x1512 $x7068 $x1782 $x9335 $x2052)))))))))))
(assert
 (let (($x7996 (= cell_5_9 9)))
 (let (($x7201 (= cell_5_9 8)))
 (let (($x8338 (= cell_5_9 7)))
 (let (($x10121 (= cell_5_9 6)))
 (let (($x650 (= cell_5_9 5)))
 (let (($x9732 (= cell_5_9 4)))
 (let (($x9268 (= cell_5_9 3)))
 (let (($x7646 (= cell_5_9 2)))
 (let (($x2380 (= cell_5_9 1)))
 (or $x2380 $x7646 $x9268 $x9732 $x650 $x10121 $x8338 $x7201 $x7996)))))))))))
(assert
 (let (($x2750 (= cell_6_9 2)))
 (or (= cell_6_9 1) $x2750 (= cell_6_9 3) (= cell_6_9 4) (= cell_6_9 5) (= cell_6_9 6) (= cell_6_9 7) (= cell_6_9 8) (= cell_6_9 9))))
(assert
 (let (($x2776 (= cell_7_9 9)))
 (let (($x8438 (= cell_7_9 8)))
 (let (($x9104 (= cell_7_9 7)))
 (let (($x6209 (= cell_7_9 6)))
 (let (($x908 (= cell_7_9 5)))
 (let (($x5382 (= cell_7_9 4)))
 (let (($x7614 (= cell_7_9 3)))
 (let (($x534 (= cell_7_9 2)))
 (let (($x6612 (= cell_7_9 1)))
 (or $x6612 $x534 $x7614 $x5382 $x908 $x6209 $x9104 $x8438 $x2776)))))))))))
(assert
 (let (($x8070 (= cell_8_9 1)))
 (or $x8070 (= cell_8_9 2) (= cell_8_9 3) (= cell_8_9 4) (= cell_8_9 5) (= cell_8_9 6) (= cell_8_9 7) (= cell_8_9 8) (= cell_8_9 9))))
(assert
 (let (($x33 (= cell_9_9 2)))
 (let (($x10240 (= cell_9_9 1)))
 (or $x10240 $x33 (= cell_9_9 3) (= cell_9_9 4) (= cell_9_9 5) (= cell_9_9 6) (= cell_9_9 7) (= cell_9_9 8) (= cell_9_9 9)))))
(assert
 (and (distinct cell_1_1 cell_1_2 cell_1_3 cell_1_4 cell_1_5 cell_1_6 cell_1_7 cell_1_8 cell_1_9) true))
(assert
 (and (distinct cell_2_1 cell_2_2 cell_2_3 cell_2_4 cell_2_5 cell_2_6 cell_2_7 cell_2_8 cell_2_9) true))
(assert
 (and (distinct cell_3_1 cell_3_2 cell_3_3 cell_3_4 cell_3_5 cell_3_6 cell_3_7 cell_3_8 cell_3_9) true))
(assert
 (and (distinct cell_4_1 cell_4_2 cell_4_3 cell_4_4 cell_4_5 cell_4_6 cell_4_7 cell_4_8 cell_4_9) true))
(assert
 (and (distinct cell_5_1 cell_5_2 cell_5_3 cell_5_4 cell_5_5 cell_5_6 cell_5_7 cell_5_8 cell_5_9) true))
(assert
 (and (distinct cell_6_1 cell_6_2 cell_6_3 cell_6_4 cell_6_5 cell_6_6 cell_6_7 cell_6_8 cell_6_9) true))
(assert
 (and (distinct cell_7_1 cell_7_2 cell_7_3 cell_7_4 cell_7_5 cell_7_6 cell_7_7 cell_7_8 cell_7_9) true))
(assert
 (and (distinct cell_8_1 cell_8_2 cell_8_3 cell_8_4 cell_8_5 cell_8_6 cell_8_7 cell_8_8 cell_8_9) true))
(assert
 (and (distinct cell_9_1 cell_9_2 cell_9_3 cell_9_4 cell_9_5 cell_9_6 cell_9_7 cell_9_8 cell_9_9) true))
(assert
 (and (distinct cell_1_1 cell_2_1 cell_3_1 cell_4_1 cell_5_1 cell_6_1 cell_7_1 cell_8_1 cell_9_1) true))
(assert
 (and (distinct cell_1_2 cell_2_2 cell_3_2 cell_4_2 cell_5_2 cell_6_2 cell_7_2 cell_8_2 cell_9_2) true))
(assert
 (and (distinct cell_1_3 cell_2_3 cell_3_3 cell_4_3 cell_5_3 cell_6_3 cell_7_3 cell_8_3 cell_9_3) true))
(assert
 (and (distinct cell_1_4 cell_2_4 cell_3_4 cell_4_4 cell_5_4 cell_6_4 cell_7_4 cell_8_4 cell_9_4) true))
(assert
 (and (distinct cell_1_5 cell_2_5 cell_3_5 cell_4_5 cell_5_5 cell_6_5 cell_7_5 cell_8_5 cell_9_5) true))
(assert
 (and (distinct cell_1_6 cell_2_6 cell_3_6 cell_4_6 cell_5_6 cell_6_6 cell_7_6 cell_8_6 cell_9_6) true))
(assert
 (and (distinct cell_1_7 cell_2_7 cell_3_7 cell_4_7 cell_5_7 cell_6_7 cell_7_7 cell_8_7 cell_9_7) true))
(assert
 (and (distinct cell_1_8 cell_2_8 cell_3_8 cell_4_8 cell_5_8 cell_6_8 cell_7_8 cell_8_8 cell_9_8) true))
(assert
 (and (distinct cell_1_9 cell_2_9 cell_3_9 cell_4_9 cell_5_9 cell_6_9 cell_7_9 cell_8_9 cell_9_9) true))
(assert
 (and (distinct cell_1_1 cell_1_2 cell_1_3 cell_2_1 cell_2_2 cell_2_3 cell_3_1 cell_3_2 cell_3_3) true))
(assert
 (and (distinct cell_1_4 cell_1_5 cell_1_6 cell_2_4 cell_2_5 cell_2_6 cell_3_4 cell_3_5 cell_3_6) true))
(assert
 (and (distinct cell_1_7 cell_1_8 cell_1_9 cell_2_7 cell_2_8 cell_2_9 cell_3_7 cell_3_8 cell_3_9) true))
(assert
 (and (distinct cell_4_1 cell_4_2 cell_4_3 cell_5_1 cell_5_2 cell_5_3 cell_6_1 cell_6_2 cell_6_3) true))
(assert
 (and (distinct cell_4_4 cell_4_5 cell_4_6 cell_5_4 cell_5_5 cell_5_6 cell_6_4 cell_6_5 cell_6_6) true))
(assert
 (and (distinct cell_4_7 cell_4_8 cell_4_9 cell_5_7 cell_5_8 cell_5_9 cell_6_7 cell_6_8 cell_6_9) true))
(assert
 (and (distinct cell_7_1 cell_7_2 cell_7_3 cell_8_1 cell_8_2 cell_8_3 cell_9_1 cell_9_2 cell_9_3) true))
(assert
 (and (distinct cell_7_4 cell_7_5 cell_7_6 cell_8_4 cell_8_5 cell_8_6 cell_9_4 cell_9_5 cell_9_6) true))
(assert
 (and (distinct cell_7_7 cell_7_8 cell_7_9 cell_8_7 cell_8_8 cell_8_9 cell_9_7 cell_9_8 cell_9_9) true))
(assert
 (let (($x1720 (and (distinct cell_5_9 cell_6_8 cell_7_7 cell_8_6) true)))
 (let (($x7017 (and (distinct cell_2_9 cell_3_8 cell_4_7 cell_5_6 cell_6_5 cell_7_4 cell_8_3 cell_9_2) true)))
 (let (($x8928 (and (distinct cell_1_8 cell_2_7 cell_3_6 cell_4_5 cell_5_4 cell_6_3 cell_7_2 cell_8_1) true)))
 (let (($x8887 (and (distinct cell_1_5 cell_2_4 cell_3_3 cell_4_2) true)))
 (let (($x5924 (and (distinct cell_5_1 cell_6_2 cell_7_3 cell_8_4) true)))
 (let (($x9916 (and (distinct cell_2_1 cell_3_2 cell_4_3 cell_5_4 cell_6_5 cell_7_6 cell_8_7 cell_9_8) true)))
 (let (($x6974 (and (distinct cell_1_2 cell_2_3 cell_3_4 cell_4_5 cell_5_6 cell_6_7 cell_7_8 cell_8_9) true)))
 (let (($x1576 (and (distinct cell_1_5 cell_2_6 cell_3_7 cell_4_8) true)))
 (and $x1576 $x6974 $x9916 $x5924 $x8887 $x8928 $x7017 $x1720))))))))))
(assert
 (= cell_7_7 2))
(check-sat)
